Route #1:
Route #2: 3 31 7
Route #3: 26
Route #4: 20 10 22 11 15
Route #5: 24 9 8 4 29
Route #6: 1 23 6
Route #7: 18 19
Route #8: 21 13
Route #9: 17 2 30 14
Route #10: 25
Route #11: 27 12
Route #12: 16
Route #13: 28
Route #14: 5

Cost: 2138.489413938606
